Solver command line: ['C:\\Program Files\\IBM\\ILOG\\CPLEX_Studio128\\cplex\\bin\\x64_win64\\cplex.exe']



Welcome to IBM(R) ILOG(R) CPLEX(R) Interactive Optimizer 12.8.0.0

  with Simplex, Mixed Integer & Barrier Optimizers

5725-A06 5725-A29 5724-Y48 5724-Y49 5724-Y54 5724-Y55 5655-Y21

Copyright IBM Corp. 1988, 2017.  All Rights Reserved.



Type 'help' for a list of available commands.

Type 'help' followed by a command name for more

information on commands.



CPLEX> Logfile 'cplex.log' closed.

Logfile 'Solver_Output.log' open.

CPLEX> New value for mixed integer optimality gap tolerance: 0.05

CPLEX> New value for time limit in seconds: 36000

CPLEX> Problem 'C:\Users\jhonnyvs\AppData\Local\Temp\tmpikkrs5zc.pyomo.lp' read.

Read time = 0.44 sec. (12.87 ticks)

CPLEX> Problem name         : C:\Users\jhonnyvs\AppData\Local\Temp\tmpikkrs5zc.pyomo.lp

Objective sense      : Minimize

Variables            :   96366  [Nneg: 52561,  Box: 35044,  General Integer: 8761]

Objective nonzeros   :   43804

Linear constraints   :  131403  [Less: 78840,  Equal: 52563]

  Nonzeros           :  302275

  RHS nonzeros       :   40516



Variables            : Min LB: 0.000000         Max UB: 700000.0       

Objective nonzeros   : Min   : 0.05975555       Max   : 47814.58       

Linear constraints   :

  Nonzeros           : Min   : 0.001000000      Max   : 15.00000       

  RHS nonzeros       : Min   : 0.2460000        Max   : 104.0000       

CPLEX> CPXPARAM_TimeLimit                               36000

CPXPARAM_MIP_Tolerances_MIPGap                   0.050000000000000003

Tried aggregator 4 times.

MIP Presolve eliminated 35537 rows and 24983 columns.

MIP Presolve modified 9921 coefficients.

Aggregator did 19308 substitutions.

Reduced MIP has 76558 rows, 52075 columns, and 195914 nonzeros.

Reduced MIP has 1280 binaries, 6967 generals, 0 SOSs, and 0 indicators.

Presolve time = 1.50 sec. (789.68 ticks)

Found incumbent of value 313866.288237 after 2.41 sec. (1233.70 ticks)

Probing time = 0.02 sec. (2.80 ticks)

Tried aggregator 1 time.

Reduced MIP has 76558 rows, 52075 columns, and 195914 nonzeros.

Reduced MIP has 1280 binaries, 6967 generals, 0 SOSs, and 0 indicators.

Presolve time = 0.33 sec. (126.55 ticks)

Probing time = 0.03 sec. (2.82 ticks)

MIP emphasis: balance optimality and feasibility.

MIP search method: dynamic search.

Parallel mode: deterministic, using up to 4 threads.

Root relaxation solution time = 4.05 sec. (1745.98 ticks)



        Nodes                                         Cuts/

   Node  Left     Objective  IInf  Best Integer    Best Bound    ItCnt     Gap



*     0+    0                       313866.2882   110125.7160            64.91%

      0     0   152977.6720  7902   313866.2882   152977.6720       35   51.26%

      0     0   157978.5358  7808   313866.2882   Cuts: 10000    17317   49.67%

      0     0   160338.0380  6008   313866.2882    Cuts: 9975    26466   48.92%

      0     0   161019.5546  4968   313866.2882    Cuts: 9836    32983   48.70%

      0     0   161135.5205  4476   313866.2882    Cuts: 9368    35393   48.66%

      0     0   161143.3458  4404   313866.2882    Cuts: 9090    35917   48.66%

      0     0   161145.3927  4403   313866.2882    Cuts: 8261    36018   48.66%

      0     0   161146.6873  4408   313866.2882    Cuts: 8246    36111   48.66%

Heuristic still looking.

      0     2   161146.6873  4408   313866.2882   161146.6873    36111   48.66%

Elapsed time = 144.67 sec. (55046.15 ticks, tree = 0.01 MB, solutions = 1)

     33    25   161150.5186  4402   313866.2882   161147.1520    36271   48.66%

     78    75   161173.4868  4381   313866.2882   161147.1520    36368   48.66%

    104   101   161155.8934  4396   313866.2882   161147.1520    36478   48.66%

    125   120   161181.0360  4375   313866.2882   161147.1520    36624   48.66%

    149   140   161185.0746  4372   313866.2882   161147.1520    36838   48.66%

    172   166   161167.2471  4388   313866.2882   161147.1520    37066   48.66%

    193   186   161192.4176  4367   313866.2882   161147.1520    37202   48.66%

    217   202   161174.4713  4382   313866.2882   161147.1520    37310   48.66%

    271   239   161211.9007  4346   313866.2882   161147.1520    37439   48.66%

    536   507   161266.8134  4277   313866.2882   161147.1520    37779   48.66%

Elapsed time = 155.89 sec. (58229.88 ticks, tree = 10.19 MB, solutions = 1)

*   690+  652                       164864.8725   161147.1520             2.26%

*   690+  639                       164864.8678   161147.1520             2.26%



Flow cuts applied:  740

Mixed integer rounding cuts applied:  25304

Gomory fractional cuts applied:  319



Root node processing (before b&c):

  Real time             =  144.47 sec. (55004.44 ticks)

Parallel b&c, 4 threads:

  Real time             =   17.31 sec. (5163.87 ticks)

  Sync time (average)   =    1.42 sec.

  Wait time (average)   =    0.06 sec.

                          ------------

Total (root+branch&cut) =  161.78 sec. (60168.31 ticks)



Solution pool: 5 solutions saved.



MIP - Integer optimal, tolerance (0.05/1e-06):  Objective =  1.6486486779e+05

Current MIP best bound =  1.6114715201e+05 (gap = 3717.72, 2.26%)

Solution time =  161.78 sec.  Iterations = 38000  Nodes = 690 (691)

Deterministic time = 60168.59 ticks  (371.91 ticks/sec)



CPLEX> Incumbent solution written to file 'C:\Users\jhonnyvs\AppData\Local\Temp\tmp5nhoodwr.cplex.sol'.

CPLEX> 
